SCIP version 8.0.0 [precision: 8 byte] [memory: block] [mode: optimized] [LP solver: SoPlex 6.0.0] [GitHash: a740f0891e]
Copyright (C) 2002-2021 Konrad-Zuse-Zentrum fuer Informationstechnik Berlin (ZIB)

read problem </home/danilo/cbc-test-set/pigeon-16.mps.gz> ...

original problem has 1072 variables (928 bin, 0 int, 0 impl, 144 cont) and 2353 constraints
solve problem ...

presolving:
   Deactivated symmetry handling methods, since SCIP was built without symmetry detector (SYM=none).
presolving (0 rounds: 0 fast, 0 medium, 0 exhaustive):
 0 deleted vars, 0 deleted constraints, 0 added constraints, 0 tightened bounds, 0 added holes, 0 changed sides, 0 changed coefficients
 0 implications, 0 cliques
presolved problem has 1072 variables (928 bin, 0 int, 0 impl, 144 cont) and 2353 constraints
   2353 constraints of type <linear>
transformed objective value is always integral (scale: 1000)
Presolving Time: 0.00

 time | node  | left  |LP iter|LP it/n|mem/heur|mdpt |vars |cons |rows |cuts |sepa|confs|strbr|  dualbound   | primalbound  |  gap   | compl. 
  0.0s|     1 |     0 |   383 |     - |    13M |   0 |1072 |2352 |2352 |   0 |  0 |   0 |   0 |-1.600000e+04 |      --      |    Inf | unknown
  0.1s|     1 |     0 |   433 |     - |    14M |   0 |1072 |2356 |2352 |   0 |  1 |  10 |  14 |-1.600000e+04 |      --      |    Inf | unknown
  0.1s|     1 |     0 |   464 |     - |    14M |   0 |1072 |2356 |2352 |   0 |  2 |  20 |  24 |-1.600000e+04 |      --      |    Inf | unknown
  0.1s|     1 |     0 |   494 |     - |    14M |   0 |1072 |2360 |2352 |   0 |  3 |  30 |  34 |-1.600000e+04 |      --      |    Inf | unknown
  0.1s|     1 |     0 |   514 |     - |    14M |   0 |1072 |2364 |2352 |   0 |  4 |  40 |  44 |-1.600000e+04 |      --      |    Inf | unknown
  0.2s|     1 |     0 |   548 |     - |    14M |   0 |1072 |2368 |2352 |   0 |  5 |  50 |  49 |-1.600000e+04 |      --      |    Inf | unknown
  0.2s|     1 |     0 |   566 |     - |    15M |   0 |1072 |2372 |2352 |   0 |  6 |  60 |  59 |-1.600000e+04 |      --      |    Inf | unknown
  0.2s|     1 |     0 |   600 |     - |    15M |   0 |1072 |2376 |2352 |   0 |  7 |  70 |  66 |-1.600000e+04 |      --      |    Inf | unknown
  0.2s|     1 |     0 |   627 |     - |    15M |   0 |1072 |2378 |2352 |   0 |  8 |  78 |  71 |-1.600000e+04 |      --      |    Inf | unknown
  0.2s|     1 |     0 |   654 |     - |    15M |   0 |1072 |2380 |2352 |   0 |  9 |  86 |  79 |-1.600000e+04 |      --      |    Inf | unknown
  0.3s|     1 |     0 |   688 |     - |    15M |   0 |1072 |2382 |2352 |   0 | 10 |  94 |  88 |-1.600000e+04 |      --      |    Inf | unknown
  0.3s|     1 |     0 |   712 |     - |    15M |   0 |1072 |2386 |2352 |   0 | 11 | 104 |  98 |-1.600000e+04 |      --      |    Inf | unknown
  0.3s|     1 |     0 |   736 |     - |    15M |   0 |1072 |2386 |2352 |   0 | 12 | 110 | 106 |-1.600000e+04 |      --      |    Inf | unknown
  0.3s|     1 |     0 |   762 |     - |    15M |   0 |1072 |2390 |2352 |   0 | 13 | 120 | 116 |-1.600000e+04 |      --      |    Inf | unknown
  0.4s|     1 |     0 |   797 |     - |    15M |   0 |1072 |2391 |2352 |   0 | 14 | 130 | 126 |-1.600000e+04 |      --      |    Inf | unknown
 time | node  | left  |LP iter|LP it/n|mem/heur|mdpt |vars |cons |rows |cuts |sepa|confs|strbr|  dualbound   | primalbound  |  gap   | compl. 
  0.4s|     1 |     0 |   826 |     - |    15M |   0 |1072 |2395 |2352 |   0 | 15 | 140 | 136 |-1.600000e+04 |      --      |    Inf | unknown
  0.4s|     1 |     0 |   852 |     - |    15M |   0 |1072 |2399 |2352 |   0 | 16 | 150 | 145 |-1.600000e+04 |      --      |    Inf | unknown
  0.4s|     1 |     0 |   866 |     - |    15M |   0 |1072 |2403 |2352 |   0 | 17 | 160 | 153 |-1.600000e+04 |      --      |    Inf | unknown
  0.5s|     1 |     0 |   889 |     - |    15M |   0 |1072 |2407 |2352 |   0 | 18 | 170 | 163 |-1.600000e+04 |      --      |    Inf | unknown
  0.5s|     1 |     0 |   906 |     - |    15M |   0 |1072 |2411 |2352 |   0 | 19 | 180 | 173 |-1.600000e+04 |      --      |    Inf | unknown
  0.5s|     1 |     0 |   920 |     - |    15M |   0 |1072 |2412 |2352 |   0 | 20 | 188 | 183 |-1.600000e+04 |      --      |    Inf | unknown
  0.5s|     1 |     0 |   935 |     - |    15M |   0 |1072 |2416 |2352 |   0 | 21 | 198 | 193 |-1.600000e+04 |      --      |    Inf | unknown
  0.6s|     1 |     0 |   954 |     - |    15M |   0 |1072 |2420 |2352 |   0 | 22 | 208 | 203 |-1.600000e+04 |      --      |    Inf | unknown
  0.6s|     1 |     0 |   970 |     - |    15M |   0 |1072 |2424 |2352 |   0 | 23 | 218 | 212 |-1.600000e+04 |      --      |    Inf | unknown
  0.6s|     1 |     0 |   980 |     - |    15M |   0 |1072 |2428 |2352 |   0 | 24 | 228 | 222 |-1.600000e+04 |      --      |    Inf | unknown
  0.6s|     1 |     0 |   988 |     - |    15M |   0 |1072 |2431 |2352 |   0 | 25 | 238 | 230 |-1.600000e+04 |      --      |    Inf | unknown
  0.6s|     1 |     0 |   993 |     - |    15M |   0 |1072 |2433 |2352 |   0 | 26 | 248 | 236 |-1.600000e+04 |      --      |    Inf | unknown
  0.6s|     1 |     0 |   998 |     - |    15M |   0 |1072 |2435 |2352 |   0 | 27 | 256 | 242 |-1.600000e+04 |      --      |    Inf | unknown
  0.7s|     1 |     0 |  1003 |     - |    15M |   0 |1072 |2439 |2352 |   0 | 28 | 266 | 252 |-1.600000e+04 |      --      |    Inf | unknown
  0.7s|     1 |     0 |  1008 |     - |    15M |   0 |1072 |2437 |2352 |   0 | 29 | 270 | 259 |-1.600000e+04 |      --      |    Inf | unknown
 time | node  | left  |LP iter|LP it/n|mem/heur|mdpt |vars |cons |rows |cuts |sepa|confs|strbr|  dualbound   | primalbound  |  gap   | compl. 
  0.7s|     1 |     0 |  1013 |     - |    15M |   0 |1072 |2436 |2352 |   0 | 30 | 278 | 269 |-1.600000e+04 |      --      |    Inf | unknown
  0.7s|     1 |     0 |  1018 |     - |    15M |   0 |1072 |2438 |2352 |   0 | 31 | 286 | 275 |-1.600000e+04 |      --      |    Inf | unknown
  0.7s|     1 |     0 |  1023 |     - |    15M |   0 |1072 |2440 |2352 |   0 | 32 | 294 | 285 |-1.600000e+04 |      --      |    Inf | unknown
  0.8s|     1 |     0 |  1028 |     - |    15M |   0 |1072 |2440 |2352 |   0 | 33 | 300 | 292 |-1.600000e+04 |      --      |    Inf | unknown
  0.8s|     1 |     0 |  1035 |     - |    15M |   0 |1072 |2444 |2352 |   0 | 34 | 310 | 302 |-1.600000e+04 |      --      |    Inf | unknown
  0.8s|     1 |     0 |  1042 |     - |    15M |   0 |1072 |2442 |2352 |   0 | 35 | 314 | 308 |-1.600000e+04 |      --      |    Inf | unknown
  0.8s|     1 |     0 |  1047 |     - |    15M |   0 |1072 |2446 |2352 |   0 | 36 | 324 | 319 |-1.600000e+04 |      --      |    Inf | unknown
  0.8s|     1 |     0 |  1052 |     - |    15M |   0 |1072 |2444 |2352 |   0 | 37 | 328 | 325 |-1.600000e+04 |      --      |    Inf | unknown
  0.8s|     1 |     0 |  1059 |     - |    15M |   0 |1072 |2446 |2352 |   0 | 38 | 336 | 334 |-1.600000e+04 |      --      |    Inf | unknown
  0.8s|     1 |     0 |  1065 |     - |    15M |   0 |1072 |2442 |2352 |   0 | 39 | 338 | 340 |-1.600000e+04 |      --      |    Inf | unknown
  0.9s|     1 |     0 |  1071 |     - |    15M |   0 |1072 |2444 |2352 |   0 | 40 | 346 | 349 |-1.600000e+04 |      --      |    Inf | unknown
  0.9s|     1 |     0 |  1076 |     - |    15M |   0 |1072 |2442 |2352 |   0 | 41 | 350 | 356 |-1.600000e+04 |      --      |    Inf | unknown
  0.9s|     1 |     0 |  1086 |     - |    15M |   0 |1072 |2442 |2352 |   0 | 42 | 356 | 364 |-1.600000e+04 |      --      |    Inf | unknown
  0.9s|     1 |     0 |  1092 |     - |    15M |   0 |1072 |2440 |2352 |   0 | 43 | 360 | 371 |-1.600000e+04 |      --      |    Inf | unknown
  0.9s|     1 |     0 |  1097 |     - |    15M |   0 |1072 |2439 |2352 |   0 | 44 | 366 | 379 |-1.600000e+04 |      --      |    Inf | unknown
 time | node  | left  |LP iter|LP it/n|mem/heur|mdpt |vars |cons |rows |cuts |sepa|confs|strbr|  dualbound   | primalbound  |  gap   | compl. 
  0.9s|     1 |     0 |  1102 |     - |    15M |   0 |1072 |2441 |2352 |   0 | 45 | 374 | 386 |-1.600000e+04 |      --      |    Inf | unknown
  1.0s|     1 |     0 |  1111 |     - |    15M |   0 |1072 |2443 |2352 |   0 | 46 | 382 | 395 |-1.600000e+04 |      --      |    Inf | unknown
  1.0s|     1 |     0 |  1116 |     - |    15M |   0 |1072 |2438 |2352 |   0 | 47 | 386 | 402 |-1.600000e+04 |      --      |    Inf | unknown
  1.0s|     1 |     0 |  1121 |     - |    15M |   0 |1072 |2440 |2352 |   0 | 48 | 394 | 411 |-1.600000e+04 |      --      |    Inf | unknown
  1.0s|     1 |     0 |  1130 |     - |    15M |   0 |1072 |2440 |2352 |   0 | 49 | 400 | 420 |-1.600000e+04 |      --      |    Inf | unknown
  1.0s|     1 |     0 |  1140 |     - |    15M |   0 |1072 |2440 |2352 |   0 | 50 | 406 | 427 |-1.600000e+04 |      --      |    Inf | unknown
  1.0s|     1 |     0 |  1150 |     - |    15M |   0 |1072 |2438 |2352 |   0 | 51 | 410 | 435 |-1.600000e+04 |      --      |    Inf | unknown
  1.0s|     1 |     0 |  1155 |     - |    15M |   0 |1072 |2440 |2352 |   0 | 52 | 418 | 443 |-1.600000e+04 |      --      |    Inf | unknown
  1.1s|     1 |     0 |  1160 |     - |    15M |   0 |1072 |2436 |2352 |   0 | 53 | 420 | 449 |-1.600000e+04 |      --      |    Inf | unknown
  1.1s|     1 |     0 |  1166 |     - |    15M |   0 |1072 |2440 |2352 |   0 | 54 | 430 | 458 |-1.600000e+04 |      --      |    Inf | unknown
  1.1s|     1 |     0 |  1173 |     - |    15M |   0 |1072 |2437 |2352 |   0 | 55 | 434 | 465 |-1.600000e+04 |      --      |    Inf | unknown
  1.1s|     1 |     0 |  1178 |     - |    15M |   0 |1072 |2439 |2352 |   0 | 56 | 442 | 473 |-1.600000e+04 |      --      |    Inf | unknown
  1.1s|     1 |     0 |  1182 |     - |    15M |   0 |1072 |2438 |2352 |   0 | 57 | 446 | 480 |-1.600000e+04 |      --      |    Inf | unknown
  1.1s|     1 |     0 |  1184 |     - |    15M |   0 |1072 |2436 |2352 |   0 | 58 | 446 | 484 |-1.600000e+04 |      --      |    Inf | unknown
  1.1s|     1 |     2 |  1184 |     - |    15M |   0 |1072 |2436 |2352 |   0 | 59 | 446 | 486 |-1.600000e+04 |      --      |    Inf | unknown

SCIP Status        : solving was interrupted [node limit reached]
Solving Time (sec) : 1.13
Solving Nodes      : 1
Primal Bound       : +1.00000000000000e+20 (0 solutions)
Dual Bound         : -1.60000000000000e+04
Gap                : infinite
primal solution:
no solution available
Statistics:
SCIP Status        : solving was interrupted [node limit reached]
Total Time         :       1.15
  solving          :       1.13
  presolving       :       0.00 (included in solving)
  reading          :       0.02
  copying          :       0.00 (0 times copied the problem)
Original Problem   :
  Problem name     : pigeon-16
  Variables        : 1072 (928 binary, 0 integer, 0 implicit integer, 144 continuous)
  Constraints      : 2353 initial, 2353 maximal
  Objective        : minimize, 16 non-zeros (abs.min = 1000, abs.max = 1000)
Presolved Problem  :
  Problem name     : t_pigeon-16
  Variables        : 1072 (928 binary, 0 integer, 0 implicit integer, 144 continuous)
  Constraints      : 2353 initial, 2448 maximal
  Objective        : minimize, 16 non-zeros (abs.min = 1, abs.max = 1)
  Nonzeros         : 21104 constraint, 0 clique table
Presolvers         :   ExecTime  SetupTime  Calls  FixedVars   AggrVars   ChgTypes  ChgBounds   AddHoles    DelCons    AddCons   ChgSides   ChgCoefs
  boundshift       :       0.00       0.00      0          0          0          0          0          0          0          0          0          0
  convertinttobin  :       0.00       0.00      0          0          0          0          0          0          0          0          0          0
  domcol           :       0.00       0.00      0          0          0          0          0          0          0          0          0          0
  dualagg          :       0.00       0.00      0          0          0          0          0          0          0          0          0          0
  dualcomp         :       0.00       0.00      0          0          0          0          0          0          0          0          0          0
  dualinfer        :       0.00       0.00      0          0          0          0          0          0          0          0          0          0
  dualsparsify     :       0.00       0.00      0          0          0          0          0          0          0          0          0          0
  gateextraction   :       0.00       0.00      0          0          0          0          0          0          0          0          0          0
  implics          :       0.00       0.00      0          0          0          0          0          0          0          0          0          0
  inttobinary      :       0.00       0.00      0          0          0          0          0          0          0          0          0          0
  qpkktref         :       0.00       0.00      0          0          0          0          0          0          0          0          0          0
  redvub           :       0.00       0.00      0          0          0          0          0          0          0          0          0          0
  sparsify         :       0.00       0.00      0          0          0          0          0          0          0          0          0          0
  stuffing         :       0.00       0.00      0          0          0          0          0          0          0          0          0          0
  trivial          :       0.00       0.00      0          0          0          0          0          0          0          0          0          0
  tworowbnd        :       0.00       0.00      0          0          0          0          0          0          0          0          0          0
  dualfix          :       0.00       0.00      0          0          0          0          0          0          0          0          0          0
  genvbounds       :       0.00       0.00      0          0          0          0          0          0          0          0          0          0
  probing          :       0.00       0.00      0          0          0          0          0          0          0          0          0          0
  pseudoobj        :       0.00       0.00      0          0          0          0          0          0          0          0          0          0
  symmetry         :       0.00       0.00      0          0          0          0          0          0          0          0          0          0
  vbounds          :       0.00       0.00      0          0          0          0          0          0          0          0          0          0
  linear           :       0.00       0.00      0          0          0          0          0          0          0          0          0          0
  benders          :       0.00       0.00      0          0          0          0          0          0          0          0          0          0
  components       :       0.00       0.00      0          0          0          0          0          0          0          0          0          0
  root node        :          -          -      -        402          -          -        546          -          -          -          -          -
Constraints        :     Number  MaxNumber  #Separate #Propagate    #EnfoLP    #EnfoRelax  #EnfoPS    #Check   #ResProp    Cutoffs    DomReds       Cuts    Applied      Conss   Children
  benderslp        :          0          0          0          0         59          0          0          1          0          0          0          0          0          0          0
  integral         :          0          0          0          0         59          0          0          1          0          0         63          0          0        223          2
  linear           :       2353+      2448         59        950          0          0          0          0          0         63        116          0          0          0          0
  benders          :          0          0          0          0          0          0          0          0          0          0          0          0          0          0          0
  countsols        :          0          0          0          0          0          0          0          0          0          0          0          0          0          0          0
  components       :          0          0          0          0          0          0          0          0          0          0          0          0          0          0          0
Constraint Timings :  TotalTime  SetupTime   Separate  Propagate     EnfoLP     EnfoPS     EnfoRelax   Check    ResProp    SB-Prop
  benderslp        :       0.00       0.00       0.00       0.00       0.00       0.00       0.00       0.00       0.00       0.00
  integral         :       1.03       0.00       0.00       0.00       1.03       0.00       0.00       0.00       0.00       0.00
  linear           :       0.02       0.00       0.01       0.00       0.00       0.00       0.00       0.00       0.00       0.00
  benders          :       0.00       0.00       0.00       0.00       0.00       0.00       0.00       0.00       0.00       0.00
  countsols        :       0.00       0.00       0.00       0.00       0.00       0.00       0.00       0.00       0.00       0.00
  components       :       0.00       0.00       0.00       0.00       0.00       0.00       0.00       0.00       0.00       0.00
Propagators        : #Propagate   #ResProp    Cutoffs    DomReds
  dualfix          :        120          0          0        144
  genvbounds       :          0          0          0          0
  nlobbt           :          0          0          0          0
  obbt             :          0          0          0          0
  probing          :          0          0          0          0
  pseudoobj        :        238          0          0          0
  redcost          :        118          0          0          0
  rootredcost      :          0          0          0          0
  symmetry         :          0          0          0          0
  vbounds          :          0          0          0          0
Propagator Timings :  TotalTime  SetupTime   Presolve  Propagate    ResProp    SB-Prop
  dualfix          :       0.00       0.00       0.00       0.00       0.00       0.00
  genvbounds       :       0.00       0.00       0.00       0.00       0.00       0.00
  nlobbt           :       0.00       0.00       0.00       0.00       0.00       0.00
  obbt             :       0.00       0.00       0.00       0.00       0.00       0.00
  probing          :       0.00       0.00       0.00       0.00       0.00       0.00
  pseudoobj        :       0.00       0.00       0.00       0.00       0.00       0.00
  redcost          :       0.00       0.00       0.00       0.00       0.00       0.00
  rootredcost      :       0.00       0.00       0.00       0.00       0.00       0.00
  symmetry         :       0.00       0.00       0.00       0.00       0.00       0.00
  vbounds          :       0.00       0.00       0.00       0.00       0.00       0.00
Conflict Analysis  :       Time      Calls    Success    DomReds  Conflicts   Literals    Reconvs ReconvLits   Dualrays   Nonzeros   LP Iters   (pool size: [--,--])
  propagation      :       0.00          0          0          -          0        0.0          0        0.0          -          -          -
  infeasible LP    :       0.02        223        223          -        223        1.0          0        0.0        223        3.9          0
  bound exceed. LP :       0.00          0          0          -          0        0.0          0        0.0          0        0.0          0
  strong branching :       0.00          0          0          -          0        0.0          0        0.0          -          -          0
  pseudo solution  :       0.00          0          0          -          0        0.0          0        0.0          -          -          -
  applied globally :       0.00          -          -          0        223        1.0          -          -        223          -          -
  applied locally  :          -          -          -          0          0        0.0          -          -          0          -          -
Separators         :   ExecTime  SetupTime      Calls    Cutoffs    DomReds       Cuts    Applied      Conss
  cut pool         :       0.00                     0          -          -          0          -          -    (maximal pool size: 0)
  aggregation      :       0.00       0.00          0          0          0          0          0          0
  > cmir           :          -          -          -          -          -          -          0          -
  > flowcover      :          -          -          -          -          -          -          0          -
  > knapsackcover  :          -          -          -          -          -          -          0          -
  cgmip            :       0.00       0.00          0          0          0          0          0          0
  clique           :       0.00       0.00          0          0          0          0          0          0
  closecuts        :       0.00       0.00          0          0          0          0          0          0
  convexproj       :       0.00       0.00          0          0          0          0          0          0
  disjunctive      :       0.00       0.00          0          0          0          0          0          0
  eccuts           :       0.00       0.00          0          0          0          0          0          0
  gauge            :       0.00       0.00          0          0          0          0          0          0
  gmi              :       0.00       0.00          0          0          0          0          0          0
  gomory           :       0.00       0.00          0          0          0          0          0          0
  > gomorymi       :          -          -          -          -          -          -          0          -
  > strongcg       :          -          -          -          -          -          -          0          -
  impliedbounds    :       0.00       0.00          0          0          0          0          0          0
  interminor       :       0.00       0.00          0          0          0          0          0          0
  intobj           :       0.00       0.00          0          0          0          0          0          0
  mcf              :       0.00       0.00          0          0          0          0          0          0
  minor            :       0.00       0.00          0          0          0          0          0          0
  mixing           :       0.00       0.00          0          0          0          0          0          0
  oddcycle         :       0.00       0.00          0          0          0          0          0          0
  rapidlearning    :       0.00       0.00          0          0          0          0          0          0
  rlt              :       0.00       0.00          0          0          0          0          0          0
  zerohalf         :       0.00       0.00          0          0          0          0          0          0
Cutselectors       :   ExecTime  SetupTime
  hybrid           :       0.00       0.00
Pricers            :   ExecTime  SetupTime      Calls       Vars
  problem variables:       0.00          -          0          0
Branching Rules    :   ExecTime  SetupTime   BranchLP  BranchExt   BranchPS    Cutoffs    DomReds       Cuts      Conss   Children
  allfullstrong    :       0.00       0.00          0          0          0          0          0          0          0          0
  cloud            :       0.00       0.00          0          0          0          0          0          0          0          0
  distribution     :       0.00       0.00          0          0          0          0          0          0          0          0
  fullstrong       :       0.00       0.00          0          0          0          0          0          0          0          0
  inference        :       0.00       0.00          0          0          0          0          0          0          0          0
  leastinf         :       0.00       0.00          0          0          0          0          0          0          0          0
  lookahead        :       0.00       0.00          0          0          0          0          0          0          0          0
  mostinf          :       0.00       0.00          0          0          0          0          0          0          0          0
  multaggr         :       0.00       0.00          0          0          0          0          0          0          0          0
  nodereopt        :       0.00       0.00          0          0          0          0          0          0          0          0
  pscost           :       0.00       0.00          0          0          0          0          0          0          0          0
  random           :       0.00       0.00          0          0          0          0          0          0          0          0
  relpscost        :       1.03       0.00         59          0          0          0         63          0        223          2
  vanillafullstrong:       0.00       0.00          0          0          0          0          0          0          0          0
Primal Heuristics  :   ExecTime  SetupTime      Calls      Found       Best
  LP solutions     :       0.00          -          -          0          0
  relax solutions  :       0.00          -          -          0          0
  pseudo solutions :       0.00          -          -          0          0
  strong branching :       0.01          -          -          0          0
  actconsdiving    :       0.00       0.00          0          0          0
  adaptivediving   :       0.00       0.00          0          0          0
  alns             :       0.00       0.00          0          0          0
  bound            :       0.00       0.00          0          0          0
  clique           :       0.00       0.00          0          0          0
  coefdiving       :       0.00       0.00          0          0          0
  completesol      :       0.00       0.00          0          0          0
  conflictdiving   :       0.00       0.00          0          0          0
  crossover        :       0.00       0.00          0          0          0
  dins             :       0.00       0.00          0          0          0
  distributiondivin:       0.00       0.00          0          0          0
  dps              :       0.00       0.00          0          0          0
  dualval          :       0.00       0.00          0          0          0
  farkasdiving     :       0.00       0.00          0          0          0
  feaspump         :       0.00       0.00          0          0          0
  fixandinfer      :       0.00       0.00          0          0          0
  fracdiving       :       0.00       0.00          0          0          0
  gins             :       0.00       0.00          0          0          0
  guideddiving     :       0.00       0.00          0          0          0
  indicator        :       0.00       0.00          0          0          0
  intdiving        :       0.00       0.00          0          0          0
  intshifting      :       0.00       0.00          0          0          0
  linesearchdiving :       0.00       0.00          0          0          0
  localbranching   :       0.00       0.00          0          0          0
  locks            :       0.00       0.00          0          0          0
  lpface           :       0.00       0.00          0          0          0
  mpec             :       0.00       0.00          0          0          0
  multistart       :       0.00       0.00          0          0          0
  mutation         :       0.00       0.00          0          0          0
  nlpdiving        :       0.00       0.00          0          0          0
  objpscostdiving  :       0.00       0.00          0          0          0
  octane           :       0.00       0.00          0          0          0
  ofins            :       0.00       0.00          0          0          0
  oneopt           :       0.00       0.00          0          0          0
  padm             :       0.00       0.00          0          0          0
  proximity        :       0.00       0.00          0          0          0
  pscostdiving     :       0.00       0.00          0          0          0
  randrounding     :       0.00       0.00          0          0          0
  rens             :       0.00       0.00          0          0          0
  reoptsols        :       0.00       0.00          0          0          0
  repair           :       0.00       0.00          0          0          0
  rins             :       0.00       0.00          0          0          0
  rootsoldiving    :       0.00       0.00          0          0          0
  rounding         :       0.00       0.00          0          0          0
  shiftandpropagate:       0.00       0.00          0          0          0
  shifting         :       0.00       0.00          0          0          0
  simplerounding   :       0.00       0.00          0          0          0
  subnlp           :       0.00       0.00          0          0          0
  trivial          :       0.00       0.00          0          0          0
  trivialnegation  :       0.00       0.00          0          0          0
  trustregion      :       0.00       0.00          0          0          0
  trysol           :       0.00       0.00          0          0          0
  twoopt           :       0.00       0.00          0          0          0
  undercover       :       0.00       0.00          0          0          0
  vbounds          :       0.00       0.00          0          0          0
  veclendiving     :       0.00       0.00          0          0          0
  zeroobj          :       0.00       0.00          0          0          0
  zirounding       :       0.00       0.00          0          0          0
  other solutions  :          -          -          -          0          -
Diving (single)    :      Calls      Nodes   LP Iters Backtracks  Conflicts   MinDepth   MaxDepth   AvgDepth  RoundSols  NLeafSols  MinSolDpt  MaxSolDpt  AvgSolDpt
  actconsdiving    :          0          -          -          -          -          -          -          -          -          -          -          -          -
  coefdiving       :          0          -          -          -          -          -          -          -          -          -          -          -          -
  conflictdiving   :          0          -          -          -          -          -          -          -          -          -          -          -          -
  distributiondivin:          0          -          -          -          -          -          -          -          -          -          -          -          -
  farkasdiving     :          0          -          -          -          -          -          -          -          -          -          -          -          -
  fracdiving       :          0          -          -          -          -          -          -          -          -          -          -          -          -
  guideddiving     :          0          -          -          -          -          -          -          -          -          -          -          -          -
  linesearchdiving :          0          -          -          -          -          -          -          -          -          -          -          -          -
  pscostdiving     :          0          -          -          -          -          -          -          -          -          -          -          -          -
  veclendiving     :          0          -          -          -          -          -          -          -          -          -          -          -          -
Diving (adaptive)  :      Calls      Nodes   LP Iters Backtracks  Conflicts   MinDepth   MaxDepth   AvgDepth  RoundSols  NLeafSols  MinSolDpt  MaxSolDpt  AvgSolDpt
  actconsdiving    :          0          -          -          -          -          -          -          -          -          -          -          -          -
  coefdiving       :          0          -          -          -          -          -          -          -          -          -          -          -          -
  conflictdiving   :          0          -          -          -          -          -          -          -          -          -          -          -          -
  distributiondivin:          0          -          -          -          -          -          -          -          -          -          -          -          -
  farkasdiving     :          0          -          -          -          -          -          -          -          -          -          -          -          -
  fracdiving       :          0          -          -          -          -          -          -          -          -          -          -          -          -
  guideddiving     :          0          -          -          -          -          -          -          -          -          -          -          -          -
  linesearchdiving :          0          -          -          -          -          -          -          -          -          -          -          -          -
  pscostdiving     :          0          -          -          -          -          -          -          -          -          -          -          -          -
  veclendiving     :          0          -          -          -          -          -          -          -          -          -          -          -          -
Neighborhoods      :      Calls  SetupTime  SolveTime SolveNodes       Sols       Best       Exp3  EpsGreedy        UCB TgtFixRate  Opt  Inf Node Stal  Sol  Usr Othr Actv
  rens             :          0       0.00       0.00          0          0          0    0.00000   -1.00000    1.00000      0.900    0    0    0    0    0    0    0    1
  rins             :          0       0.00       0.00          0          0          0    0.00000   -1.00000    1.00000      0.900    0    0    0    0    0    0    0    1
  mutation         :          0       0.00       0.00          0          0          0    0.00000   -1.00000    1.00000      0.900    0    0    0    0    0    0    0    1
  localbranching   :          0       0.00       0.00          0          0          0    0.00000   -1.00000    1.00000      0.900    0    0    0    0    0    0    0    1
  crossover        :          0       0.00       0.00          0          0          0    0.00000   -1.00000    1.00000      0.900    0    0    0    0    0    0    0    1
  proximity        :          0       0.00       0.00          0          0          0    0.00000   -1.00000    1.00000      0.900    0    0    0    0    0    0    0    1
  zeroobjective    :          0       0.00       0.00          0          0          0    0.00000   -1.00000    1.00000      0.900    0    0    0    0    0    0    0    1
  dins             :          0       0.00       0.00          0          0          0    0.00000   -1.00000    1.00000      0.900    0    0    0    0    0    0    0    1
  trustregion      :          0       0.00       0.00          0          0          0    0.00000   -1.00000    1.00000      0.900    0    0    0    0    0    0    0    0
LP                 :       Time      Calls Iterations  Iter/call   Iter/sec  Time-0-It Calls-0-It    ItLimit
  primal LP        :       0.00          0          0       0.00          -       0.00          0
  dual LP          :       0.05         57        485      13.47    9520.82       0.01         21
  lex dual LP      :       0.00          0          0       0.00          -
  barrier LP       :       0.00          0          0       0.00          -       0.00          0
  resolve instable :       0.00          0          0       0.00          -
  diving/probing LP:       0.16         57        699      12.26    4477.15
  strong branching :       0.60        486       7136      14.68   11880.50          -          -          0
    (at root node) :          -        486       7136      14.68          -
  conflict analysis:       0.00          0          0       0.00          -
B&B Tree           :
  number of runs   :          1
  nodes            :          1 (1 internal, 0 leaves)
  feasible leaves  :          0
  infeas. leaves   :          0
  objective leaves :          0
  nodes (total)    :          1 (1 internal, 0 leaves)
  nodes left       :          2
  max depth        :          0
  max depth (total):          0
  backtracks       :          0 (0.0%)
  early backtracks :          0 (0.0%)
  nodes exc. ref.  :          0 (0.0%)
  delayed cutoffs  :          0
  repropagations   :          0 (0 domain reductions, 0 cutoffs)
  avg switch length:       1.00
  switching time   :       0.00
Estim. Tree Size   :         -1
Estimation Tree    : 3 nodes (1 visited, 1 internal, 0 leaves, 2 open), weight: 0.0000 completed 0.0000
Estimations        :      estim      value      trend resolution     smooth
  wbe              :         -1          -          -          -          -
  tree-profile     :         -1          -          -          -          -
  gap              :         -1    0.00000                     1           
  tree-weight      :         -1    0.00000                     1           
  leaf-frequency   :         -1   -0.50000                     1           
  ssg              :         -1    1.00000                     1           
  open-nodes       :         -1    2.00000                     1           
Root Node          :
  First LP value   : -1.60000000000000e+04
  First LP Iters   :        383 (41535.63 Iter/sec)
  First LP Time    :       0.01
  Final Dual Bound : -1.60000000000000e+04
  Final Root Iters :        485
  Root LP Estimate : -1.59894768522267e+04
Solution           :
  Solutions found  :          0 (0 improvements)
  Primal Bound     :          -
  Dual Bound       : -1.60000000000000e+04
  Gap              :   infinite
Integrals          :      Total       Avg%
  primal-dual      :     113.37     100.00
  primal-ref       :          -          - (not evaluated)
  dual-ref         :          -          - (not evaluated)
